notebooks/instance_1.lp
minimize
OBJ: +38 x1 +40 x2 +33 x3 +34 x4 +27 x5 +100 x6 +90 x7 +51 x8 +89 x9 +83 x10

subject to
C0: +1 x1 +1 x4 +1 x9 >= 1
C1: +1 x1 +1 x3 +1 x6 +1 x7 +1 x10 >= 1
C2: +1 x2 +1 x3 +1 x4 +1 x5 +1 x6 +1 x9 +1 x10 >= 1
C3: +1 x1 +1 x4 +1 x7 >= 1
C4: +1 x1 +1 x4 +1 x8 +1 x9 >= 1
C5: +1 x2 +1 x4 +1 x5 +1 x7 +1 x10 >= 1
C6: +1 x2 +1 x3 +1 x6 +1 x10 >= 1
C7: +1 x2 +1 x4 +1 x7 +1 x8 >= 1
C8: +1 x1 +1 x4 +1 x5 +1 x10 >= 1
C9: +1 x1 +1 x3 +1 x8 +1 x9 >= 1
C10: +1 x1 +1 x3 +1 x4 +1 x6 >= 1
C11: +1 x2 +1 x4 +1 x5 +1 x7 +1 x9 +1 x10 >= 1
C12: +1 x2 +1 x3 +1 x4 +1 x5 +1 x6 >= 1
C13: +1 x1 +1 x5 +1 x6 +1 x8 +1 x9 +1 x10 >= 1
C14: +1 x1 +1 x4 +1 x5 +1 x6 >= 1
C15: +1 x1 +1 x3 +1 x4 +1 x6 +1 x9 +1 x10 >= 1
C16: +1 x1 +1 x3 +1 x6 +1 x10 >= 1
C17: +1 x3 +1 x4 +1 x6 +1 x8 +1 x9 >= 1
C18: +1 x3 +1 x5 +1 x6 +1 x7 +1 x8 >= 1
C19: +1 x2 +1 x4 +1 x9 +1 x10 >= 1
C20: +1 x2 +1 x4 +1 x9 >= 1
C21: +1 x2 +1 x4 +1 x5 +1 x7 +1 x10 >= 1
C22: +1 x2 +1 x4 +1 x5 +1 x6 +1 x10 >= 1
C23: +1 x1 +1 x3 +1 x5 +1 x6 +1 x9 >= 1
C24: +1 x1 +1 x4 +1 x5 +1 x6 +1 x7 +1 x9 +1 x10 >= 1
C25: +1 x1 +1 x4 +1 x5 +1 x6 +1 x7 +1 x8 >= 1
C26: +1 x1 +1 x3 +1 x5 >= 1
C27: +1 x2 +1 x4 +1 x9 +1 x10 >= 1
C28: +1 x2 +1 x4 +1 x7 +1 x8 +1 x9 +1 x10 >= 1
C29: +1 x3 +1 x4 +1 x5 +1 x6 +1 x9 >= 1
C30: +1 x2 +1 x3 +1 x8 +1 x9 +1 x10 >= 1
C31: +1 x1 +1 x4 +1 x7 +1 x9 +1 x10 >= 1
C32: +1 x1 +1 x3 +1 x4 +1 x5 +1 x9 >= 1
C33: +1 x1 +1 x3 +1 x4 +1 x7 +1 x9 +1 x10 >= 1
C34: +1 x1 +1 x3 +1 x4 +1 x5 +1 x8 +1 x9 >= 1
C35: +1 x2 +1 x5 +1 x6 +1 x8 +1 x9 >= 1
C36: +1 x1 +1 x3 +1 x4 +1 x9 >= 1
C37: +1 x2 +1 x3 +1 x4 +1 x5 +1 x7 +1 x10 >= 1
C38: +1 x2 +1 x3 +1 x4 +1 x5 +1 x7 +1 x9 >= 1
C39: +1 x1 +1 x4 +1 x6 +1 x8 +1 x9 +1 x10 >= 1
C40: +1 x1 +1 x3 +1 x4 +1 x5 +1 x8 +1 x9 >= 1
C41: +1 x1 +1 x3 +1 x4 +1 x8 >= 1
C42: +1 x1 +1 x3 +1 x6 +1 x8 +1 x9 +1 x10 >= 1
C43: +1 x1 +1 x4 +1 x5 +1 x8 +1 x10 >= 1
C44: +1 x1 +1 x4 +1 x7 +1 x9 +1 x10 >= 1
C45: +1 x2 +1 x3 +1 x5 +1 x6 +1 x10 >= 1
C46: +1 x1 +1 x4 +1 x5 +1 x6 +1 x8 +1 x9 >= 1
C47: +1 x1 +1 x3 +1 x4 +1 x6 +1 x10 >= 1
C48: +1 x2 +1 x4 +1 x6 +1 x7 +1 x8 +1 x9 >= 1
C49: +1 x2 +1 x3 +1 x4 +1 x5 +1 x7 +1 x9 +1 x10 >= 1

binary
 x1 x2 x3 x4 x5 x6 x7 x8 x9 x10
end