notebooks/instance_1.mps
* ENCODING=ISO-8859-1
NAME          instance_1.lp
ROWS
 N  OBJ     
 G  C0      
 G  C1      
 G  C2      
 G  C3      
 G  C4      
 G  C5      
 G  C6      
 G  C7      
 G  C8      
 G  C9      
 G  C10     
 G  C11     
 G  C12     
 G  C13     
 G  C14     
 G  C15     
 G  C16     
 G  C17     
 G  C18     
 G  C19     
 G  C20     
 G  C21     
 G  C22     
 G  C23     
 G  C24     
 G  C25     
 G  C26     
 G  C27     
 G  C28     
 G  C29     
 G  C30     
 G  C31     
 G  C32     
 G  C33     
 G  C34     
 G  C35     
 G  C36     
 G  C37     
 G  C38     
 G  C39     
 G  C40     
 G  C41     
 G  C42     
 G  C43     
 G  C44     
 G  C45     
 G  C46     
 G  C47     
 G  C48     
 G  C49     
COLUMNS
    MARK0000  'MARKER'                 'INTORG'
    x1        OBJ                            38
    x1        C0                              1
    x1        C1                              1
    x1        C3                              1
    x1        C4                              1
    x1        C8                              1
    x1        C9                              1
    x1        C10                             1
    x1        C13                             1
    x1        C14                             1
    x1        C15                             1
    x1        C16                             1
    x1        C23                             1
    x1        C24                             1
    x1        C25                             1
    x1        C26                             1
    x1        C31                             1
    x1        C32                             1
    x1        C33                             1
    x1        C34                             1
    x1        C36                             1
    x1        C39                             1
    x1        C40                             1
    x1        C41                             1
    x1        C42                             1
    x1        C43                             1
    x1        C44                             1
    x1        C46                             1
    x1        C47                             1
    x2        OBJ                            40
    x2        C2                              1
    x2        C5                              1
    x2        C6                              1
    x2        C7                              1
    x2        C11                             1
    x2        C12                             1
    x2        C19                             1
    x2        C20                             1
    x2        C21                             1
    x2        C22                             1
    x2        C27                             1
    x2        C28                             1
    x2        C30                             1
    x2        C35                             1
    x2        C37                             1
    x2        C38                             1
    x2        C45                             1
    x2        C48                             1
    x2        C49                             1
    x3        OBJ                            33
    x3        C1                              1
    x3        C2                              1
    x3        C6                              1
    x3        C9                              1
    x3        C10                             1
    x3        C12                             1
    x3        C15                             1
    x3        C16                             1
    x3        C17                             1
    x3        C18                             1
    x3        C23                             1
    x3        C26                             1
    x3        C29                             1
    x3        C30                             1
    x3        C32                             1
    x3        C33                             1
    x3        C34                             1
    x3        C36                             1
    x3        C37                             1
    x3        C38                             1
    x3        C40                             1
    x3        C41                             1
    x3        C42                             1
    x3        C45                             1
    x3        C47                             1
    x3        C49                             1
    x4        OBJ                            34
    x4        C0                              1
    x4        C2                              1
    x4        C3                              1
    x4        C4                              1
    x4        C5                              1
    x4        C7                              1
    x4        C8                              1
    x4        C10                             1
    x4        C11                             1
    x4        C12                             1
    x4        C14                             1
    x4        C15                             1
    x4        C17                             1
    x4        C19                             1
    x4        C20                             1
    x4        C21                             1
    x4        C22                             1
    x4        C24                             1
    x4        C25                             1
    x4        C27                             1
    x4        C28                             1
    x4        C29                             1
    x4        C31                             1
    x4        C32                             1
    x4        C33                             1
    x4        C34                             1
    x4        C36                             1
    x4        C37                             1
    x4        C38                             1
    x4        C39                             1
    x4        C40                             1
    x4        C41                             1
    x4        C43                             1
    x4        C44                             1
    x4        C46                             1
    x4        C47                             1
    x4        C48                             1
    x4        C49                             1
    x5        OBJ                            27
    x5        C2                              1
    x5        C5                              1
    x5        C8                              1
    x5        C11                             1
    x5        C12                             1
    x5        C13                             1
    x5        C14                             1
    x5        C18                             1
    x5        C21                             1
    x5        C22                             1
    x5        C23                             1
    x5        C24                             1
    x5        C25                             1
    x5        C26                             1
    x5        C29                             1
    x5        C32                             1
    x5        C34                             1
    x5        C35                             1
    x5        C37                             1
    x5        C38                             1
    x5        C40                             1
    x5        C43                             1
    x5        C45                             1
    x5        C46                             1
    x5        C49                             1
    x6        OBJ                           100
    x6        C1                              1
    x6        C2                              1
    x6        C6                              1
    x6        C10                             1
    x6        C12                             1
    x6        C13                             1
    x6        C14                             1
    x6        C15                             1
    x6        C16                             1
    x6        C17                             1
    x6        C18                             1
    x6        C22                             1
    x6        C23                             1
    x6        C24                             1
    x6        C25                             1
    x6        C29                             1
    x6        C35                             1
    x6        C39                             1
    x6        C42                             1
    x6        C45                             1
    x6        C46                             1
    x6        C47                             1
    x6        C48                             1
    x7        OBJ                            90
    x7        C1                              1
    x7        C3                              1
    x7        C5                              1
    x7        C7                              1
    x7        C11                             1
    x7        C18                             1
    x7        C21                             1
    x7        C24                             1
    x7        C25                             1
    x7        C28                             1
    x7        C31                             1
    x7        C33                             1
    x7        C37                             1
    x7        C38                             1
    x7        C44                             1
    x7        C48                             1
    x7        C49                             1
    x8        OBJ                            51
    x8        C4                              1
    x8        C7                              1
    x8        C9                              1
    x8        C13                             1
    x8        C17                             1
    x8        C18                             1
    x8        C25                             1
    x8        C28                             1
    x8        C30                             1
    x8        C34                             1
    x8        C35                             1
    x8        C39                             1
    x8        C40                             1
    x8        C41                             1
    x8        C42                             1
    x8        C43                             1
    x8        C46                             1
    x8        C48                             1
    x9        OBJ                            89
    x9        C0                              1
    x9        C2                              1
    x9        C4                              1
    x9        C9                              1
    x9        C11                             1
    x9        C13                             1
    x9        C15                             1
    x9        C17                             1
    x9        C19                             1
    x9        C20                             1
    x9        C23                             1
    x9        C24                             1
    x9        C27                             1
    x9        C28                             1
    x9        C29                             1
    x9        C30                             1
    x9        C31                             1
    x9        C32                             1
    x9        C33                             1
    x9        C34                             1
    x9        C35                             1
    x9        C36                             1
    x9        C38                             1
    x9        C39                             1
    x9        C40                             1
    x9        C42                             1
    x9        C44                             1
    x9        C46                             1
    x9        C48                             1
    x9        C49                             1
    x10       OBJ                            83
    x10       C1                              1
    x10       C2                              1
    x10       C5                              1
    x10       C6                              1
    x10       C8                              1
    x10       C11                             1
    x10       C13                             1
    x10       C15                             1
    x10       C16                             1
    x10       C19                             1
    x10       C21                             1
    x10       C22                             1
    x10       C24                             1
    x10       C27                             1
    x10       C28                             1
    x10       C30                             1
    x10       C31                             1
    x10       C33                             1
    x10       C37                             1
    x10       C39                             1
    x10       C42                             1
    x10       C43                             1
    x10       C44                             1
    x10       C45                             1
    x10       C47                             1
    x10       C49                             1
    MARK0001  'MARKER'                 'INTEND'
RHS
    rhs       C0                              1
    rhs       C1                              1
    rhs       C2                              1
    rhs       C3                              1
    rhs       C4                              1
    rhs       C5                              1
    rhs       C6                              1
    rhs       C7                              1
    rhs       C8                              1
    rhs       C9                              1
    rhs       C10                             1
    rhs       C11                             1
    rhs       C12                             1
    rhs       C13                             1
    rhs       C14                             1
    rhs       C15                             1
    rhs       C16                             1
    rhs       C17                             1
    rhs       C18                             1
    rhs       C19                             1
    rhs       C20                             1
    rhs       C21                             1
    rhs       C22                             1
    rhs       C23                             1
    rhs       C24                             1
    rhs       C25                             1
    rhs       C26                             1
    rhs       C27                             1
    rhs       C28                             1
    rhs       C29                             1
    rhs       C30                             1
    rhs       C31                             1
    rhs       C32                             1
    rhs       C33                             1
    rhs       C34                             1
    rhs       C35                             1
    rhs       C36                             1
    rhs       C37                             1
    rhs       C38                             1
    rhs       C39                             1
    rhs       C40                             1
    rhs       C41                             1
    rhs       C42                             1
    rhs       C43                             1
    rhs       C44                             1
    rhs       C45                             1
    rhs       C46                             1
    rhs       C47                             1
    rhs       C48                             1
    rhs       C49                             1
BOUNDS
 BV bnd       x1      
 BV bnd       x2      
 BV bnd       x3      
 BV bnd       x4      
 BV bnd       x5      
 BV bnd       x6      
 BV bnd       x7      
 BV bnd       x8      
 BV bnd       x9      
 BV bnd       x10     
ENDATA
